certificates/rado_a7_c51_N12.cnf
c Rad2 upper bound instance: x1 + 7*x2 - x3 = 51, interval [1,12]
p cnf 12 40
1 6 8 0
-1 -6 -8 0
2 7 8 0
-2 -7 -8 0
1 3 7 0
-1 -3 -7 0
3 8 0
-3 -8 0
2 4 7 0
-2 -4 -7 0
4 8 9 0
-4 -8 -9 0
3 5 7 0
-3 -5 -7 0
5 8 10 0
-5 -8 -10 0
4 6 7 0
-4 -6 -7 0
6 8 11 0
-6 -8 -11 0
5 7 0
-5 -7 0
7 8 12 0
-7 -8 -12 0
6 7 8 0
-6 -7 -8 0
7 9 0
-7 -9 0
1 6 10 0
-1 -6 -10 0
7 8 10 0
-7 -8 -10 0
2 6 11 0
-2 -6 -11 0
7 9 11 0
-7 -9 -11 0
3 6 12 0
-3 -6 -12 0
7 10 12 0
-7 -10 -12 0
