certificates/rado_a7_c51_N12.drat
-10 -12 0
d -10 -7 -12 0
8 10 0
-12 0
10 0
-8 0
3 0
7 0
-1 0
-5 0
-9 0
6 0
4 0
0
